letting n =  10
letting blocks =  [[1, 1], [1, 2], [1, 3], [1, 7], [1, 9], [2, 2], [2, 6], [2, 7], [2, 8], [2, 10], [3, 1], [3, 3], [3, 8], [4, 1], [4, 3], [4, 9], [5, 9], [6, 6], [6, 8], [6, 10], [7, 1], [7, 2], [7, 7], [7, 8], [8, 3], [8, 5], [8, 10], [9, 3], [9, 9], [10, 2], [10, 3], [10, 6]]
